NAME: myTSP11
TYPE: TSP
COMMENT: 11-city problem / solution: 0-7-4-3-9-5-2-6-1-10-8-0 = 253km
DIMENSION: 11
EDGE_WEIGHT_TYPE: EXPLICIT
EDGE_WEIGHT_FORMAT: UPPER_ROW 
EDGE_WEIGHT_SECTION
29  20  21  16  31  100 12  4   31  18
15  29  28  40  72  21  29  41  12
15  14  25  81  9   23  27  13
4   12  92  12  25  13  25
16  94  9   20  16  22
95  24  36  3   37
90  101 99  84
15  25  13
35  18
38
EOF
